% Generated by MiniZinc 2.9.3
% Solver library: /home/icwmmarijnisse/Pumpkin/minizinc/lib
% Command line invocation: minizinc --compile --fzn ./instance.fzn --ozn ./instance.ozn --solver pumpkin ../../../../benchmarks/models/rcpsp/rcpsp_smaller.mzn ../../../../benchmarks/models/rcpsp/pack025.dzn 

predicate pumpkin_cumulative(array [int] of var int: s,array [int] of int: d,array [int] of int: r,int: b);
array [1..2] of int: X_INTRODUCED_51_ = [1,-1];
array [1..14] of int: X_INTRODUCED_56_ = [1,1,1,1,5,3,2,2,3,4,3,3,2,5];
array [1..14] of int: X_INTRODUCED_57_ = [3,4,169,3,261,3,5,115,222,235,204,6,5,102];
array [1..14] of int: X_INTRODUCED_59_ = [3,3,2,1,2,1,2,1,1,2,2,3,2,2];
array [1..14] of int: X_INTRODUCED_60_ = [2,1,2,1,2,2,1,1,1,2,1,2,1,2];
var 0..3199: X_INTRODUCED_16_;
var 0..3199: X_INTRODUCED_17_;
var 0..3199: X_INTRODUCED_18_;
var 0..3199: X_INTRODUCED_19_;
var 0..3199: X_INTRODUCED_20_;
var 0..3199: X_INTRODUCED_21_;
var 0..3199: X_INTRODUCED_22_;
var 0..3199: X_INTRODUCED_23_;
var 0..3199: X_INTRODUCED_24_;
var 0..3199: X_INTRODUCED_25_;
var 0..3199: X_INTRODUCED_26_;
var 0..3199: X_INTRODUCED_27_;
var 0..3199: X_INTRODUCED_28_;
var 0..3199: X_INTRODUCED_29_;
var 0..3199: X_INTRODUCED_30_;
var 0..3199: X_INTRODUCED_31_;
var 0..3199: X_INTRODUCED_32_;
var 0..3199: X_INTRODUCED_33_;
var 0..3199: X_INTRODUCED_34_;
var 0..3199: X_INTRODUCED_35_;
var 0..3199: X_INTRODUCED_36_;
var 0..3199: X_INTRODUCED_37_;
var 0..3199: X_INTRODUCED_38_;
var 0..3199: X_INTRODUCED_39_;
var 0..3199: X_INTRODUCED_40_;
var 0..3199: X_INTRODUCED_41_;
var 0..3199: X_INTRODUCED_42_;
var 0..3199: X_INTRODUCED_43_;
var 0..3199: X_INTRODUCED_44_;
var 0..3199: X_INTRODUCED_45_;
var 0..3199: X_INTRODUCED_46_;
var 0..3199: X_INTRODUCED_47_;
var 0..3200: Objective:: output_var;
array [1..32] of var int: Start:: output_array([1..32]) = [X_INTRODUCED_16_,X_INTRODUCED_17_,X_INTRODUCED_18_,X_INTRODUCED_19_,X_INTRODUCED_20_,X_INTRODUCED_21_,X_INTRODUCED_22_,X_INTRODUCED_23_,X_INTRODUCED_24_,X_INTRODUCED_25_,X_INTRODUCED_26_,X_INTRODUCED_27_,X_INTRODUCED_28_,X_INTRODUCED_29_,X_INTRODUCED_30_,X_INTRODUCED_31_,X_INTRODUCED_32_,X_INTRODUCED_33_,X_INTRODUCED_34_,X_INTRODUCED_35_,X_INTRODUCED_36_,X_INTRODUCED_37_,X_INTRODUCED_38_,X_INTRODUCED_39_,X_INTRODUCED_40_,X_INTRODUCED_41_,X_INTRODUCED_42_,X_INTRODUCED_43_,X_INTRODUCED_44_,X_INTRODUCED_45_,X_INTRODUCED_46_,X_INTRODUCED_47_];
array [1..14] of var int: X_INTRODUCED_58_ ::var_is_introduced  = [X_INTRODUCED_16_,X_INTRODUCED_17_,X_INTRODUCED_18_,X_INTRODUCED_19_,X_INTRODUCED_20_,X_INTRODUCED_21_,X_INTRODUCED_22_,X_INTRODUCED_23_,X_INTRODUCED_24_,X_INTRODUCED_25_,X_INTRODUCED_26_,X_INTRODUCED_27_,X_INTRODUCED_28_,X_INTRODUCED_29_];
array [1..15] of var int: X_INTRODUCED_64_ ::var_is_introduced  = [X_INTRODUCED_16_,X_INTRODUCED_17_,X_INTRODUCED_18_,X_INTRODUCED_19_,X_INTRODUCED_20_,X_INTRODUCED_21_,X_INTRODUCED_22_,X_INTRODUCED_23_,X_INTRODUCED_24_,X_INTRODUCED_25_,X_INTRODUCED_26_,X_INTRODUCED_27_,X_INTRODUCED_28_,X_INTRODUCED_29_,Objective];
constraint int_lin_le(X_INTRODUCED_51_,[X_INTRODUCED_16_,X_INTRODUCED_19_],-3);
constraint int_lin_le(X_INTRODUCED_51_,[X_INTRODUCED_16_,X_INTRODUCED_27_],-3);
constraint int_lin_le(X_INTRODUCED_51_,[X_INTRODUCED_18_,X_INTRODUCED_25_],-169);
constraint int_lin_le(X_INTRODUCED_51_,[X_INTRODUCED_19_,X_INTRODUCED_23_],-3);
constraint int_lin_le(X_INTRODUCED_51_,[X_INTRODUCED_21_,X_INTRODUCED_25_],-3);
constraint int_lin_le(X_INTRODUCED_51_,[X_INTRODUCED_23_,X_INTRODUCED_26_],-115);
constraint pumpkin_cumulative(X_INTRODUCED_58_,X_INTRODUCED_57_,X_INTRODUCED_56_,5);
constraint pumpkin_cumulative(X_INTRODUCED_58_,X_INTRODUCED_57_,X_INTRODUCED_59_,9);
constraint pumpkin_cumulative(X_INTRODUCED_58_,X_INTRODUCED_57_,X_INTRODUCED_60_,7);
constraint int_lin_le(X_INTRODUCED_51_,[X_INTRODUCED_20_,Objective],-261);
constraint int_lin_le(X_INTRODUCED_51_,[X_INTRODUCED_25_,Objective],-235);
constraint int_lin_le(X_INTRODUCED_51_,[X_INTRODUCED_28_,Objective],-5);
solve :: int_search(X_INTRODUCED_64_,smallest,indomain_min,complete) minimize Objective;
